n=10;
hearts=31;
clubs=59;
spades=26;
diamonds=90;
blocked=31;
m=array2d(1..n, 1..n,[
	2,3,5,1,4,5,1,5,_,5,
	3,5,_,5,_,_,5,5,5,2,
	5,_,_,_,_,5,_,_,2,_,
	5,_,2,4,_,_,4,3,5,5,
	5,3,5,_,_,_,_,2,5,1,
	_,5,4,_,5,3,_,1,_,5,
	5,_,_,_,5,5,2,5,1,3,
	1,5,5,5,_,1,_,_,5,_,
	2,1,_,_,1,_,2,5,2,_,
	3,_,_,1,5,4,2,_,5,1
]);
